language Essence 1.3

letting class be
        function(1 --> 1, 2 --> 6, 3 --> 8, 4 --> 3, 5 --> 1, 6 --> 7, 7 --> 3, 8 --> 10, 9 --> 4, 10 --> 2, 11 --> 9,
                 12 --> 5, 13 --> 10, 14 --> 2, 15 --> 4, 16 --> 5, 17 --> 2, 18 --> 2, 19 --> 5, 20 --> 8, 21 --> 1,
                 22 --> 3, 23 --> 10, 24 --> 1, 25 --> 7, 26 --> 4)
letting deck_length be 86
letting deck_width be 41
letting length be
        function(1 --> 1, 2 --> 1, 3 --> 1, 4 --> 1, 5 --> 2, 6 --> 1, 7 --> 1, 8 --> 1, 9 --> 1, 10 --> 1, 11 --> 1,
                 12 --> 1, 13 --> 1, 14 --> 1, 15 --> 1, 16 --> 17, 17 --> 18, 18 --> 1, 19 --> 1, 20 --> 8, 21 --> 1,
                 22 --> 1, 23 --> 1, 24 --> 1, 25 --> 1, 26 --> 2)
letting n_classes be 10
letting n_containers be 26
letting separation be function({2, 10} --> 15, {3, 4} --> 65, {4, 10} --> 69)
letting width be
        function(1 --> 4, 2 --> 18, 3 --> 29, 4 --> 27, 5 --> 3, 6 --> 13, 7 --> 3, 8 --> 17, 9 --> 5, 10 --> 16,
                 11 --> 4, 12 --> 9, 13 --> 23, 14 --> 21, 15 --> 1, 16 --> 40, 17 --> 41, 18 --> 35, 19 --> 2,
                 20 --> 35, 21 --> 17, 22 --> 35, 23 --> 13, 24 --> 26, 25 --> 24, 26 --> 17)
